data;
param n:=100;
param w:=1 -236 2 -454 3 -301 4 213 5 -119 6 11 7 337 8 -32 9 -111 10 459 11 371 12 -288 13 430 14 -457 15 404 16 373 17 -130 18 50 19 8 20 -476 21 -347 22 456 23 284 24 -4 25 -245 26 12 27 303 28 445 29 -238 30 -436 31 -165 32 -121 33 40 34 -477 35 420 36 293 37 127 38 -335 39 -451 40 190 41 -134 42 217 43 -320 44 -184 45 217 46 278 47 34 48 454 49 -331 50 297 51 -352 52 398 53 -239 54 -190 55 -482 56 387 57 135 58 131 59 283 60 403 61 263 62 49 63 24 64 190 65 2 66 -194 67 -467 68 168 69 300 70 312 71 -221 72 153 73 304 74 172 75 455 76 -176 77 -279 78 336 79 365 80 58 81 -68 82 -497 83 -316 84 -229 85 253 86 -427 87 -323 88 319 89 279 90 -524 91 -346 92 -328 93 182 94 -357 95 -215 96 -510 97 -107 98 383 99 96 100 116;
